solution status: optimal solution found
objective value:                     191958.890706573
d11(0,0)                                            1 	(obj:0)
d11(2,3)                                            1 	(obj:0)
d11(2,5)                                            1 	(obj:0)
d11(5,31)                                           1 	(obj:0)
d11(5,32)                                           1 	(obj:0)
d11(5,33)                                           1 	(obj:0)
d11(5,34)                                           1 	(obj:0)
d11(5,35)                                           1 	(obj:0)
d11(5,36)                                           1 	(obj:0)
d11(5,37)                                           1 	(obj:0)
d11(5,38)                                           1 	(obj:0)
d11(5,39)                                           1 	(obj:0)
d11(5,40)                                           1 	(obj:0)
d11(5,41)                                           1 	(obj:0)
d11(5,42)                                           1 	(obj:0)
d11(5,43)                                           1 	(obj:0)
d11(5,44)                                           1 	(obj:0)
d11(5,45)                                           1 	(obj:0)
d11(5,46)                                           1 	(obj:0)
d11(5,47)                                           1 	(obj:0)
d11(5,48)                                           1 	(obj:0)
d11(5,49)                                           1 	(obj:0)
d11(5,50)                                           1 	(obj:0)
d11(5,51)                                           1 	(obj:0)
d11(5,52)                                           1 	(obj:0)
d11(5,53)                                           1 	(obj:0)
d11(5,54)                                           1 	(obj:0)
d11(5,55)                                           1 	(obj:0)
d11(5,56)                                           1 	(obj:0)
d11(5,57)                                           1 	(obj:0)
d11(5,58)                                           1 	(obj:0)
d11(5,59)                                           1 	(obj:0)
d11(5,60)                                           1 	(obj:0)
d11(5,61)                                           1 	(obj:0)
d11(5,62)                                           1 	(obj:0)
d12(1,1)                                            1 	(obj:0)
d12(1,2)                                            1 	(obj:0)
d12(2,4)                                            1 	(obj:0)
d12(3,8)                                            1 	(obj:0)
d12(3,10)                                           1 	(obj:0)
d12(3,12)                                           1 	(obj:0)
d12(3,14)                                           1 	(obj:0)
d12(4,15)                                           1 	(obj:0)
d12(4,16)                                           1 	(obj:0)
d12(4,18)                                           1 	(obj:0)
d12(4,19)                                           1 	(obj:0)
d12(4,20)                                           1 	(obj:0)
d12(4,21)                                           1 	(obj:0)
d12(4,22)                                           1 	(obj:0)
d12(4,23)                                           1 	(obj:0)
d12(4,24)                                           1 	(obj:0)
d12(4,26)                                           1 	(obj:0)
d12(4,27)                                           1 	(obj:0)
d12(4,28)                                           1 	(obj:0)
d12(4,29)                                           1 	(obj:0)
d12(4,30)                                           1 	(obj:0)
d21(5,31)                                           1 	(obj:0)
d21(5,32)                                           1 	(obj:0)
d21(5,33)                                           1 	(obj:0)
d21(5,35)                                           1 	(obj:0)
d21(5,37)                                           1 	(obj:0)
d21(5,39)                                           1 	(obj:0)
d21(5,47)                                           1 	(obj:0)
d21(5,51)                                           1 	(obj:0)
STE(1,1)                                         8694 	(obj:0)
STE(0,0)                                         9450 	(obj:0)
STE(1,2)                             10111.8036635499 	(obj:0)
STE(2,3)                             6458.93819039214 	(obj:0)
STE(2,4)                                         7938 	(obj:0)
STE(2,5)                             7876.74185394208 	(obj:0)
STE(2,6)                             9355.80366354994 	(obj:0)
STE(3,7)                             5702.93819039214 	(obj:0)
STE(3,8)                             7019.15227626865 	(obj:0)
STE(3,9)                                         7182 	(obj:0)
STE(3,10)                            8498.21408587651 	(obj:0)
STE(3,11)                            7120.74185394208 	(obj:0)
STE(3,12)                            8436.95593981859 	(obj:0)
STE(3,13)                            8599.80366354994 	(obj:0)
STE(3,14)                            9916.01774942645 	(obj:0)
STE(4,15)                            4946.93819039214 	(obj:0)
STE(4,16)                            6364.74185394208 	(obj:0)
STE(4,17)                            6263.15227626865 	(obj:0)
STE(4,18)                            7680.95593981859 	(obj:0)
STE(4,19)                                        6426 	(obj:0)
STE(4,20)                            7843.80366354994 	(obj:0)
STE(4,21)                            7742.21408587651 	(obj:0)
STE(4,22)                            9160.01774942645 	(obj:0)
STE(4,23)                            6364.74185394208 	(obj:0)
STE(4,24)                            7782.54551749202 	(obj:0)
STE(4,25)                            7680.95593981859 	(obj:0)
STE(4,26)                            9098.75960336853 	(obj:0)
STE(4,27)                            7843.80366354994 	(obj:0)
STE(4,28)                            9261.60732709988 	(obj:0)
STE(4,29)                            9160.01774942645 	(obj:0)
STE(4,30)                            10577.8214129764 	(obj:0)
STE(5,31)                           -905.275795484362 	(obj:0)
STE(5,32)                            752.974103404455 	(obj:0)
STE(5,33)                            512.527868065577 	(obj:0)
STE(5,34)                            2170.77776695439 	(obj:0)
STE(5,35)                            410.938290392144 	(obj:0)
STE(5,36)                            2069.18818928106 	(obj:0)
STE(5,37)                            1828.74195394208 	(obj:0)
STE(5,38)                             3486.9918528309 	(obj:0)
STE(5,39)                            573.786014123494 	(obj:0)
STE(5,40)                            2232.03591301231 	(obj:0)
STE(5,41)                            1991.58967767343 	(obj:0)
STE(5,42)                            3649.83957656225 	(obj:0)
STE(5,43)                                   1890.0001 	(obj:0)
STE(5,44)                            3548.24999888882 	(obj:0)
STE(5,45)                            3307.80376354994 	(obj:0)
STE(5,46)                            4966.05366243876 	(obj:0)
STE(5,47)                            512.527868065577 	(obj:0)
STE(5,48)                            2170.77776695439 	(obj:0)
STE(5,49)                            1930.33153161552 	(obj:0)
STE(5,50)                            3588.58143050433 	(obj:0)
STE(5,51)                            1828.74195394208 	(obj:0)
STE(5,52)                             3486.9918528309 	(obj:0)
STE(5,53)                            3246.54561749202 	(obj:0)
STE(5,54)                            4904.79551638084 	(obj:0)
STE(5,55)                            1991.58967767343 	(obj:0)
STE(5,56)                            3649.83957656225 	(obj:0)
STE(5,57)                            3409.39334122337 	(obj:0)
STE(5,58)                            5067.64324011219 	(obj:0)
STE(5,59)                            3307.80376354994 	(obj:0)
STE(5,60)                            4966.05366243876 	(obj:0)
STE(5,61)                            4725.60742709988 	(obj:0)
STE(5,62)                             6383.8573259887 	(obj:0)
y1(5,38)                             3094.16767828892 	(obj:0)
y1(5,39)                             4586.59258728886 	(obj:0)
y1(5,40)                             3094.16767828892 	(obj:0)
y1(5,41)                             4586.59258728886 	(obj:0)
y1(5,42)                             3094.16767828892 	(obj:0)
y1(5,43)                             4586.59258728886 	(obj:0)
y1(5,44)                             3094.16767828892 	(obj:0)
y1(5,45)                             4586.59258728886 	(obj:0)
y1(5,46)                             3094.16767828892 	(obj:0)
y1(5,47)                             4586.59258728886 	(obj:0)
y1(5,48)                             3094.16767828892 	(obj:0)
y1(5,49)                             4586.59258728886 	(obj:0)
y1(5,50)                             3094.16767828892 	(obj:0)
y1(5,51)                             4586.59258728886 	(obj:0)
y1(5,52)                             3094.16767828892 	(obj:0)
y1(5,53)                             4586.59258728886 	(obj:0)
y1(5,54)                             3094.16767828892 	(obj:0)
y1(5,55)                             4586.59258728886 	(obj:0)
y1(5,56)                             3094.16767828892 	(obj:0)
y1(5,57)                             4586.59258728886 	(obj:0)
y1(5,58)                             3094.16767828892 	(obj:0)
y1(5,59)                             4586.59258728886 	(obj:0)
y1(5,60)                             3094.16767828892 	(obj:0)
y1(5,61)                             4586.59258728886 	(obj:0)
y1(5,62)                             3094.16767828892 	(obj:0)
WB(1)                                648.341370266629 	(obj:0)
AVE(1)                                   3216.9117036 	(obj:0)
AVE(2)                                   3366.1541945 	(obj:0)
WB(3)                                    3515.3966854 	(obj:0)
AVE(3)                                   3515.3966854 	(obj:0)
WB(4)                                3515.39406545826 	(obj:0)
AVE(4)                               3515.39406545826 	(obj:0)
AVE(5)                               3167.15385943327 	(obj:0)
WG(1)                                2568.57033333337 	(obj:10)
WG(2)                                    3366.1541945 	(obj:10)
WG(5)                                3167.15385943327 	(obj:10)
BG(2)                                665.577814323535 	(obj:10)
BG(3)                                2673.40993877551 	(obj:10)
BG(4)                                2568.57033333337 	(obj:10)
BG(5)                                4186.45259698391 	(obj:10)
y1(2,3)                              1331.15562864707 	(obj:0)
y1(2,5)                              1331.15562864707 	(obj:0)
y1(5,31)                             4586.59258728886 	(obj:0)
y1(5,32)                             3094.16767828892 	(obj:0)
y1(5,33)                             4586.59258728886 	(obj:0)
y1(5,34)                             3094.16767828892 	(obj:0)
y1(5,35)                             4586.59258728886 	(obj:0)
y1(5,36)                             3094.16767828883 	(obj:0)
y1(5,37)                             4586.59258728886 	(obj:0)
y2(1,2)                              1492.42490899994 	(obj:0)
y2(3,8)                              1385.48851144895 	(obj:0)
y2(3,10)                             1385.48851144895 	(obj:0)
y2(3,12)                             1385.48851144895 	(obj:0)
y2(3,14)                             1385.48851144895 	(obj:0)
y2(4,16)                             1492.42490899994 	(obj:0)
y2(4,18)                             1492.42490899994 	(obj:0)
y2(4,20)                             1492.42490899994 	(obj:0)
y2(4,22)                             1492.42490899994 	(obj:0)
y2(4,24)                             1492.42490899994 	(obj:0)
y2(4,26)                             1492.42490899994 	(obj:0)
y2(4,28)                             1492.42490899994 	(obj:0)
y2(4,30)                             1492.42490899994 	(obj:0)
